
se = 80; % nombre de sessions
gr = 40; % nombre de grups de treball
cl = 12; % nombre de slots
minPapersPerSlot = 3; % minim nombre d'articles per sessio i slot
maxSesionsPar = 20; % maxim nombre de sessions paraleles

npMax = [5, 6, 3, 6, 3, 5, 3, 4, 3, 4, 3, 6]; % nombre maxim de papers per slot

np = [16, 17, 7, 6, 5, 6, 9, 11, 15, 15, 8, 10, 3, 10, 15, 14, 3, 3, 3, 5, 5, 8, 10, 3, 10, 9, 12, 15, 11, 5, 3, 3, 4, 15, 18, 16, 10, 10, 17, 8, 4, 13, 9, 4, 9, 3, 16, 4, 3, 8, 7, 3, 3, 3, 16, 8, 15, 3, 14, 3, 5, 10, 13, 3, 18, 14, 4, 3, 11, 3, 9, 11, 10, 11, 11, 3, 16, 9, 14, 15]; % nombre de papers acceptats a cada sessio

WG = [ {1}, {2}, {3}, {4}, {5,6}, {7}, {8}, {9}, {10,11,12}, {13}, {}, {}, {14}, {15}, {16,17,18}, {}, {19}, {20,21}, {22}, {}, {23}, {24}, {25}, {}, {26}, {27}, {28,29,30}, {31}, {32}, {}, {}, {33}, {}, {}, {34,35}, {36}, {37}, {38}, {39}, {}, {40}, {}, {1}, {}, {}, {2}, {3}, {}, {4}, {5}, {}, {}, {6}, {7,8}, {}, {9}, {}, {10}, {}, {11,12,13}, {14}, {}, {}, {}, {15,16}, {17,18,19}, {}, {}, {20}, {21}, {22}, {23}, {24,25,26}, {}, {27,28}, {}, {29}, {30}, {31,32,33}, {34} ]; % grups per sessio

